c nIsolatedPIs 0
c maxPI 8
p cnf 33 76
c gate 9 4 7 0
4 -9 0
7 -9 0
-4 -7 9 0
c gate 10 2 3 0
2 -10 0
3 -10 0
-2 -3 10 0
c gate 11 -2 -8 0
-2 -11 0
-8 -11 0
2 8 11 0
c gate 12 -10 -11 0
-10 -12 0
-11 -12 0
10 11 12 0
c gate 13 9 12 0
9 -13 0
12 -13 0
-9 -12 13 0
c gate 14 1 -6 0
1 -14 0
-6 -14 0
-1 6 14 0
c gate 15 -1 6 0
-1 -15 0
6 -15 0
1 -6 15 0
c gate 16 -14 -15 0
-14 -16 0
-15 -16 0
14 15 16 0
c gate 17 -3 8 0
-3 -17 0
8 -17 0
3 -8 17 0
c gate 18 5 -17 0
5 -18 0
-17 -18 0
-5 17 18 0
c gate 19 -16 18 0
-16 -19 0
18 -19 0
16 -18 19 0
c gate 20 13 19 0
13 -20 0
19 -20 0
-13 -19 20 0
c gate 21 -5 -8 0
-5 -21 0
-8 -21 0
5 8 21 0
c gate 22 1 9 0
1 -22 0
9 -22 0
-1 -9 22 0
c gate 23 21 22 0
21 -23 0
22 -23 0
-21 -22 23 0
c gate 24 -4 -5 0
-4 -24 0
-5 -24 0
4 5 24 0
c gate 25 4 -8 0
4 -25 0
-8 -25 0
-4 8 25 0
c gate 26 -24 -25 0
-24 -26 0
-25 -26 0
24 25 26 0
c gate 27 -1 -7 0
-1 -27 0
-7 -27 0
1 7 27 0
c gate 28 -21 27 0
-21 -28 0
27 -28 0
21 -27 28 0
c gate 29 -26 28 0
-26 -29 0
28 -29 0
26 -28 29 0
c gate 30 -23 -29 0
-23 -30 0
-29 -30 0
23 29 30 0
c gate 31 -6 10 0
-6 -31 0
10 -31 0
6 -10 31 0
c gate 32 -30 31 0
-30 -32 0
31 -32 0
30 -31 32 0
c gate 33 -20 -32 0
-20 -33 0
-32 -33 0
20 32 33 0
c PO
-33 0
